
Gurobi 9.5.0 (win64) logging started Tue Jun 21 11:43:11 2022

Set parameter LogFile to value "../results/logs/log_facebook_combined_17_250_2022_06_21_11_43.log"

Gurobi 9.5.0 (win64) logging started Tue Jun 21 11:43:41 2022

Set parameter LogFile to value "../results/logs/log_facebook_combined_17_250_2022_06_21_11_43.log"
